n = 18;

R =
[|0,8,6,0,0,0,0,1,0,0,0,3,0,0,2,2,7,0,
 |0,8,6,0,0,0,0,0,3,3,3,3,0,4,0,0,7,0,
 |0,8,6,6,3,0,0,0,0,0,0,3,0,4,0,0,7,0,
 |0,8,6,6,3,0,0,0,0,0,0,0,0,4,0,0,7,0,
 |2,8,6,6,3,0,0,0,0,0,0,0,0,4,0,0,7,0,
 |2,8,6,6,0,0,0,0,0,0,0,0,0,0,0,0,7,0,
 |0,8,0,6,0,6,8,8,8,8,8,8,8,8,2,2,7,0,
 |0,8,1,6,0,6,0,1,3,3,3,0,0,0,3,3,3,5,
 |0,0,0,0,0,6,0,0,0,0,0,0,0,0,0,0,0,5,
 |3,3,3,0,4,6,0,0,1,0,0,0,0,0,0,0,0,5,
 |0,0,0,0,4,6,0,0,0,2,0,0,0,0,0,0,0,5,
 |0,3,3,3,4,6,4,0,0,2,4,6,6,0,0,0,0,5,
 |1,0,0,0,4,0,4,1,0,0,4,6,6,4,4,4,4,2,
 |0,0,0,0,0,0,4,0,0,0,4,6,6,0,0,0,0,2,
 |5,5,5,5,5,0,4,0,0,0,4,6,6,0,0,0,0,0,
 |0,0,0,0,0,0,0,0,0,0,0,6,6,0,0,0,0,0,
 |0,0,0,0,0,1,0,0,0,0,0,6,6,1,0,0,0,0,
 |0,1,0,0,0,0,0,0,0,0,0,0,0,0,0,0,0,0,
 |];

